n = 20;
m = 15;

G =
  [
    [ 0.0 0.96 0.0 0.0 0.0 1.0 0.0 0.0 0.0 0.0 0.0 0.0 0.0 0.0 0.0 0.0 0.0 0.0 0.0 0.0 ]
    [ 0.96 0.0 0.0 0.3 0.0 0.0 0.87 0.0 0.0 0.0 0.0 0.0 0.0 0.0 0.0 0.0 0.0 0.37 0.0 0.0 ]
    [ 0.0 0.0 0.0 0.0 0.0 0.0 0.41 0.0 0.86 0.0 0.0 0.41 0.68 0.0 0.0 0.0 0.0 0.0 0.0 0.0 ]
    [ 0.0 0.3 0.0 0.0 0.0 0.0 0.0 0.0 0.0 0.0 0.0 0.0 0.0 0.0 0.0 0.0 0.0 0.0 0.25 0.0 ]
    [ 0.0 0.0 0.0 0.0 0.0 0.0 0.55 0.0 0.0 0.0 0.0 0.0 0.0 0.41 0.26 0.0 0.0 0.0 0.0 0.93 ]
    [ 1.0 0.0 0.0 0.0 0.0 0.0 0.0 0.0 0.0 0.0 0.0 0.0 0.0 0.0 0.0 0.0 0.0 0.0 0.0 0.0 ]
    [ 0.0 0.87 0.41 0.0 0.55 0.0 0.0 0.0 0.94 0.0 0.0 0.0 0.0 0.0 0.0 0.0 0.0 0.0 0.0 0.0 ]
    [ 0.0 0.0 0.0 0.0 0.0 0.0 0.0 0.0 0.0 0.0 0.0 0.0 0.0 0.0 0.12 0.0 0.0 0.0 0.0 0.73 ]
    [ 0.0 0.0 0.86 0.0 0.0 0.0 0.94 0.0 0.0 0.0 0.39 0.0 0.0 0.0 0.66 0.0 0.0 0.0 0.0 0.0 ]
    [ 0.0 0.0 0.0 0.0 0.0 0.0 0.0 0.0 0.0 0.0 0.85 0.0 0.0 0.0 0.0 0.0 0.0 0.0 0.0 0.0 ]
    [ 0.0 0.0 0.0 0.0 0.0 0.0 0.0 0.0 0.39 0.85 0.0 0.0 0.0 0.0 0.0 0.0 0.0 0.0 0.0 0.94 ]
    [ 0.0 0.0 0.41 0.0 0.0 0.0 0.0 0.0 0.0 0.0 0.0 0.0 0.0 0.0 0.92 0.0 0.0 0.0 0.0 0.0 ]
    [ 0.0 0.0 0.68 0.0 0.0 0.0 0.0 0.0 0.0 0.0 0.0 0.0 0.0 0.0 0.0 0.63 0.35 0.0 0.0 0.0 ]
    [ 0.0 0.0 0.0 0.0 0.41 0.0 0.0 0.0 0.0 0.0 0.0 0.0 0.0 0.0 0.0 0.47 0.0 0.0 0.0 0.0 ]
    [ 0.0 0.0 0.0 0.0 0.26 0.0 0.0 0.12 0.66 0.0 0.0 0.92 0.0 0.0 0.0 0.0 0.0 0.72 0.0 0.93 ]
    [ 0.0 0.0 0.0 0.0 0.0 0.0 0.0 0.0 0.0 0.0 0.0 0.0 0.63 0.47 0.0 0.0 0.0 0.0 0.0 0.0 ]
    [ 0.0 0.0 0.0 0.0 0.0 0.0 0.0 0.0 0.0 0.0 0.0 0.0 0.35 0.0 0.0 0.0 0.0 0.0 0.0 0.25 ]
    [ 0.0 0.37 0.0 0.0 0.0 0.0 0.0 0.0 0.0 0.0 0.0 0.0 0.0 0.0 0.72 0.0 0.0 0.0 0.0 0.49 ]
    [ 0.0 0.0 0.0 0.25 0.0 0.0 0.0 0.0 0.0 0.0 0.0 0.0 0.0 0.0 0.0 0.0 0.0 0.0 0.0 0.0 ]
    [ 0.0 0.0 0.0 0.0 0.93 0.0 0.0 0.73 0.0 0.0 0.94 0.0 0.0 0.0 0.93 0.0 0.25 0.49 0.0 0.0 ]
  ];

H =
  [
    [ 0.0 0.0 0.0 0.0 0.0 0.0 0.0 0.0 0.0 0.0 0.0 0.0 0.71 0.0 0.0 ]
    [ 0.0 0.0 0.0 0.19 0.94 0.0 0.06 0.0 0.0 0.0 0.0 0.0 0.0 0.53 0.0 ]
    [ 0.0 0.0 0.0 0.0 0.0 0.0 0.0 0.0 0.0 0.77 0.0 0.0 0.0 0.0 0.0 ]
    [ 0.0 0.19 0.0 0.0 0.0 0.0 0.0 0.0 0.21 0.0 0.0 0.0 0.0 0.0 0.26 ]
    [ 0.0 0.94 0.0 0.0 0.0 0.0 0.0 0.0 0.82 0.0 0.0 0.0 0.0 0.0 0.0 ]
    [ 0.0 0.0 0.0 0.0 0.0 0.0 0.0 0.25 0.0 0.0 0.0 0.0 0.0 0.0 0.96 ]
    [ 0.0 0.06 0.0 0.0 0.0 0.0 0.0 0.0 0.0 0.53 0.0 0.0 0.0 0.0 0.0 ]
    [ 0.0 0.0 0.0 0.0 0.0 0.25 0.0 0.0 0.1 0.0 0.0 0.0 0.0 0.0 0.0 ]
    [ 0.0 0.0 0.0 0.21 0.82 0.0 0.0 0.1 0.0 0.6 0.0 0.0 0.0 0.61 0.96 ]
    [ 0.0 0.0 0.77 0.0 0.0 0.0 0.53 0.0 0.6 0.0 0.0 0.0 0.0 0.0 0.25 ]
    [ 0.0 0.0 0.0 0.0 0.0 0.0 0.0 0.0 0.0 0.0 0.0 0.0 0.71 0.0 0.0 ]
    [ 0.0 0.0 0.0 0.0 0.0 0.0 0.0 0.0 0.0 0.0 0.0 0.0 0.0 0.0 0.0 ]
    [ 0.71 0.0 0.0 0.0 0.0 0.0 0.0 0.0 0.0 0.0 0.71 0.0 0.0 0.0 0.0 ]
    [ 0.0 0.53 0.0 0.0 0.0 0.0 0.0 0.0 0.61 0.0 0.0 0.0 0.0 0.0 0.0 ]
    [ 0.0 0.0 0.0 0.26 0.0 0.96 0.0 0.0 0.96 0.25 0.0 0.0 0.0 0.0 0.0 ]
  ];